units           real
atom_style      full
bond_style      harmonic
angle_style     harmonic
dihedral_style	harmonic 
pair_style      lj/cut/coul/long 10.0
kspace_style    pppm 1e-4
special_bonds   amber
neigh_modify    delay 0 every 1 check yes

atom_modify     sort 0 0

read_data       data.mol

pair_modify mix geometric

timestep        1.0

thermo_style    multi
thermo          1
thermo_modify   flush yes

fix             1 all ms2 slave shmem qmmm

run             100
