&CONTROL
title="Alanine",
calculation='md',
restart_mode = 'from_scratch',
tprnfor=.t.,
prefix='alanine',
pseudo_dir='pseudo'
nstep = 200,
MS2_enabled=.true.,
MS2_handler='$shmem alanine',
/

&SYSTEM
ibrav = 0,
celldm(1) = 30.d0,
nat = 13,
ntyp = 7,
ecutwfc = 30.0 ,
ecutrho = 300.0,
/

&ELECTRONS
conv_thr  = 1.D-8,
/

&IONS
ion_positions = 'default'
/

CELL_PARAMETERS cubic
1.000    0.0     0.0
0.0     1.000     0.0
0.0    0.0     1.000

ATOMIC_SPECIES
O 15.9990 O.pbe-van_bm.UPF
C1 12.0110 C.pbe-van_bm.UPF 
C2 12.0110 C.pbe-van_bm.UPF 
N 14.007  N.pbe-van_bm.UPF
H1 1.0080  H.pbe-van_ak.UPF
H2 1.0080  H.pbe-van_ak.UPF
H3 1.0080  H.pbe-van_ak.UPF

ATOMIC_POSITIONS angstrom
O 12.9172168 16.1641312 14.929909500000001
C1 13.5905922 15.3296604 15.5097241
O 14.038221699999999 15.574552600000001 16.737956799999999
C2 13.9171522 14.025869500000001 14.841525799999999
N 13.3010153 13.9926829 13.505091
H1 13.5945211 13.157439699999999 13.025224100000001
H1 13.3555425 14.7810086 12.8808968
H1 12.357148199999999 13.894890800000001 13.8451138
H2 13.5426571 13.188985199999999 15.4456632
C2 15.4416019 13.884737899999999 14.7054966
H3 15.843947099999999 14.74948 14.161489899999999
H3 15.6753331 12.961215299999999 14.1535212
H3 15.8936607 13.8376073 15.7094018

K_POINTS gamma
