units           real
neigh_modify    delay 5
atom_style      full
bond_style      harmonic
angle_style     harmonic
dihedral_style  harmonic
pair_style      lj/cut/coul/long 10.0
pair_modify     mix arithmetic
kspace_style    pppm 1e-4

atom_modify	sort 0 0

read_data       data_reduced.alanine

special_bonds   amber                               
timestep        1.0

fix             1 all ms2 slave shmem alanine
run             200
