units           real
atom_style      full
bond_style      harmonic
angle_style     charmm
pair_style	lj/cut/coul/cut 10.0
special_bonds   charmm
neigh_modify    delay 0 every 1 check yes

atom_modify     sort 0 0

read_data       data.nh3

pair_modify mix geometric

timestep        1.0

thermo_style    multi
thermo          1

fix             1 all ms2ec slave shmem qmmm

run             100
