units           real
neigh_modify    delay 5
atom_style      full
bond_style      harmonic
angle_style     harmonic
dihedral_style  harmonic
pair_style      lj/cut/coul/long 10.0
pair_modify     mix arithmetic
kspace_style    pppm 1e-4

atom_modify	sort 0 0

read_data       data.ala
special_bonds   amber   
                            
timestep        1

dump            1 all xyz 1 dump.alanine.xyz

thermo_style    multi
thermo          1

fix             1 all ms2 master atoms.txt shmem alanine
fix             2 all nvt temp 300.0 300.0 50.0
run             200
